qbf_easy_train/easy_1721_SAT.qdimacs
p cnf 32 86
a 24 28 0
e 1 2 3 4 5 6 7 8 9 10 11 12 13 14 15 16 17 18 19 20 21 22 23 25 26 27 29 30 31 32 0
-3 -2 0
-3 -2 0
2 3 0
4 1 0
4 -3 0
-1 3 -4 0
5 -3 -6 0
-5 3 -6 0
5 3 6 0
-5 -3 6 0
-7 -6 0
-7 -1 0
6 1 7 0
8 -4 0
8 7 0
4 -7 -8 0
10 9 0
10 -3 0
-9 3 -10 0
-11 10 0
-11 1 0
-10 -1 11 0
12 -9 0
12 -11 0
9 11 -12 0
-13 -8 0
-13 -12 0
8 12 13 0
15 3 0
15 -14 0
-3 14 -15 0
-16 13 0
-16 -15 0
-13 15 16 0
-17 2 0
-17 -9 0
-2 9 17 0
16 -17 -18 0
-16 17 -18 0
16 17 18 0
-16 -17 18 0
20 -14 0
20 19 0
14 -19 -20 0
-21 -10 0
-21 20 0
10 -20 21 0
22 1 0
22 19 0
-1 -19 -22 0
24 -23 0
24 -19 0
23 19 -24 0
-25 22 0
-25 -24 0
-22 24 25 0
21 25 -26 0
-21 -25 -26 0
21 -25 26 0
-21 25 26 0
27 -19 0
27 -5 0
19 5 -27 0
29 -28 0
29 2 0
28 -2 -29 0
-27 -29 -30 0
27 29 -30 0
-27 29 30 0
27 -29 30 0
26 -30 -31 0
-26 30 -31 0
26 30 31 0
-26 -30 31 0
32 18 0
32 -31 0
-18 31 -32 0
11 -6 -13 -17 -12 19 23 0
-11 2 -18 12 -26 3 -15 0
-13 19 -9 5 -3 -20 1 0
-7 10 -2 -20 22 14 -8 -24 0
11 4 20 -9 -1 10 0
-18 15 1 22 -3 27 -28 0
23 -25 -5 -4 0
-5 -25 16 0
32 0
