sat_easy_train/easy_1721_SAT.dimacs
p cnf 90 278
4 2 0
4 3 0
-2 -3 -4 0
-6 5 0
-6 -5 0
-4 -6 -7 0
4 6 -7 0
-4 6 7 0
4 -6 7 0
-8 1 0
-8 7 0
-1 -7 8 0
5 10 -11 0
-5 -10 -11 0
5 -10 11 0
-5 10 11 0
9 -11 -12 0
-9 11 -12 0
9 11 12 0
-9 -11 12 0
13 -8 0
13 -12 0
8 12 -13 0
16 2 0
16 15 0
-2 -15 -16 0
17 16 0
17 1 0
-16 -1 -17 0
14 -17 -18 0
-14 17 -18 0
14 17 18 0
-14 -17 18 0
19 -13 0
19 -18 0
13 18 -19 0
21 16 0
21 20 0
-16 -20 -21 0
24 4 0
24 -23 0
-4 23 -24 0
-25 22 0
-25 -24 0
-22 24 25 0
26 20 0
26 3 0
-20 -3 -26 0
27 -26 0
27 -22 0
26 22 -27 0
-28 -23 0
-28 27 0
23 -27 28 0
-29 2 0
-29 26 0
-2 -26 29 0
30 -28 0
30 29 0
28 -29 -30 0
32 2 0
32 31 0
-2 -31 -32 0
-32 33 -34 0
32 -33 -34 0
-32 -33 34 0
32 33 34 0
36 -4 0
36 35 0
4 -35 -36 0
34 -36 -37 0
-34 36 -37 0
34 36 37 0
-34 -36 37 0
-38 -5 0
-38 6 0
5 -6 38 0
39 9 0
39 -38 0
-9 38 -39 0
37 39 -40 0
-37 -39 -40 0
37 -39 40 0
-37 39 40 0
30 -40 -41 0
-30 40 -41 0
30 40 41 0
-30 -40 41 0
42 25 0
42 -41 0
-25 41 -42 0
-43 21 0
-43 42 0
-21 -42 43 0
-44 -19 0
-44 -43 0
19 43 44 0
45 -6 0
45 2 0
6 -2 -45 0
47 46 0
47 -33 0
-46 33 -47 0
48 -6 0
48 47 0
6 -47 -48 0
49 33 0
49 48 0
-33 -48 -49 0
45 -49 -50 0
-45 49 -50 0
45 49 50 0
-45 -49 50 0
51 1 0
51 48 0
-1 -48 -51 0
-52 16 0
-52 51 0
-16 -51 52 0
-53 33 0
-53 46 0
-33 -46 53 0
54 52 0
54 53 0
-52 -53 -54 0
-55 50 0
-55 54 0
-50 -54 55 0
56 -15 0
56 -6 0
15 6 -56 0
57 56 0
57 -34 0
-56 34 -57 0
-58 -57 0
-58 56 0
57 -56 58 0
-3 47 -59 0
3 -47 -59 0
-3 -47 59 0
3 47 59 0
-60 -59 0
-60 47 0
59 -47 60 0
-61 -60 0
-61 1 0
60 -1 61 0
-62 36 0
-62 61 0
-36 -61 62 0
-58 -62 -63 0
58 62 -63 0
-58 62 63 0
58 -62 63 0
64 55 0
64 63 0
-55 -63 -64 0
65 32 0
65 -35 0
-32 35 -65 0
6 -65 -66 0
-6 65 -66 0
6 65 66 0
-6 -65 66 0
-67 -23 0
-67 -10 0
23 10 67 0
-66 -67 -68 0
66 67 -68 0
-66 67 68 0
66 -67 68 0
-69 -64 0
-69 68 0
64 -68 69 0
-32 -5 -70 0
32 5 -70 0
-32 5 70 0
32 -5 70 0
71 -70 0
71 61 0
70 -61 -71 0
73 -71 0
73 72 0
71 -72 -73 0
-74 -36 0
-74 -23 0
36 23 74 0
-75 -74 0
-75 -15 0
74 15 75 0
76 74 0
76 60 0
-74 -60 -76 0
77 76 0
77 46 0
-76 -46 -77 0
-75 -77 -78 0
75 77 -78 0
-75 77 78 0
75 -77 78 0
-79 73 0
-79 -78 0
-73 78 79 0
-35 5 -80 0
35 -5 -80 0
-35 -5 80 0
35 5 80 0
81 56 0
81 -16 0
-56 16 -81 0
3 5 -82 0
-3 -5 -82 0
3 -5 82 0
-3 5 82 0
-83 -23 0
-83 -9 0
23 9 83 0
-84 -65 0
-84 -83 0
65 83 84 0
-82 -84 -85 0
82 84 -85 0
-82 84 85 0
82 -84 85 0
81 -85 -86 0
-81 85 -86 0
81 85 86 0
-81 -85 86 0
87 -80 0
87 86 0
80 -86 -87 0
-88 79 0
-88 87 0
-79 -87 88 0
89 69 0
89 -88 0
-69 88 -89 0
-44 89 -90 0
44 -89 -90 0
-44 -89 90 0
44 89 90 0
-24 -80 52 3 -74 58 0
17 90 -18 48 25 8 0
-11 5 -88 36 62 0
88 75 48 0
-34 5 0
-11 -68 0
46 -48 84 56 -73 85 0
25 77 66 -26 -7 53 0
-33 -69 11 -44 0
32 82 24 14 0
10 82 20 5 -9 0
-73 88 2 -41 0
80 -79 -23 0
-27 -23 -90 -67 0
-20 80 -64 -70 -84 -27 0
-19 -42 -37 -53 49 24 0
-38 -69 19 -10 -54 0
30 -15 2 52 25 0
67 -33 -27 -57 0
75 -27 -24 0
-87 -23 85 75 -64 -16 0
27 -12 -6 0
-42 76 -90 -89 -61 0
-60 -57 -68 -85 -62 63 0
29 64 0
57 47 -2 0
55 28 19 0
10 -75 -17 76 -15 0
-73 37 84 56 -17 62 0
17 -18 62 30 -49 0
48 22 38 -80 74 -68 0
14 -58 -66 0
61 2 -41 -82 -80 20 0
-57 2 44 -31 1 -34 0
-68 71 0
85 -14 5 9 -8 0
90 0
